letting maxWeight=152
letting values=[13, 26, 12, 22, 19, 18, 2, 12, 19, 16, 9, 26, 15, 3, 16, 9, 16, 2, 13, 13, 26, 21, 11, 24, 15, 10, 2, 7, 12, 20, 4, 12, 9, 12, 21, 4, 7, 7, 19, 21, 5, 9, 23, 10, 6, 4, 4, 11, 16, 11, 6, 7]
letting weights=[5, 5, 6, 6, 7, 15, 23, 24, 13, 23, 24, 5, 7, 4, 19, 14, 9, 24, 16, 11, 17, 8, 7, 12, 1, 11, 9, 5, 17, 8, 7, 13, 21, 11, 2, 15, 17, 12, 1, 23, 18, 5, 16, 23, 12, 10, 17, 12, 8, 10, 3, 1]
